(set-info :smt-lib-version 2.6)
(set-logic AUFBVFPDTNIRA)
(set-info :source |
Generated by: AdaCore
Generated on: 2020-03-06
Generator: SPARK
Application: Program verification for Ada
Target solver: CVC4
|)
(set-info :license "https://creativecommons.org/licenses/by/4.0/")
(set-info :category "industrial")
(set-info :status unknown)
;;; generated by SMT-LIB2 driver
;;; SMT-LIB2 driver: bit-vectors, common part
;;; SMT-LIB2: integer arithmetic
(declare-sort string 0)

(declare-datatypes ((tuple0 0))
(((Tuple0))))
(declare-sort us_private 0)

(declare-fun private__bool_eq (us_private us_private) Bool)

(declare-const us_null_ext__ us_private)

(declare-sort us_type_of_heap 0)

(declare-datatypes ((us_type_of_heap__ref 0))
(((us_type_of_heap__refqtmk (us_type_of_heap__content us_type_of_heap)))))
(declare-sort us_image 0)

(declare-datatypes ((int__ref 0))
(((int__refqtmk (int__content Int)))))
(declare-datatypes ((bool__ref 0))
(((bool__refqtmk (bool__content Bool)))))
(declare-datatypes ((us_fixed__ref 0))
(((us_fixed__refqtmk (us_fixed__content Int)))))
(declare-datatypes ((real__ref 0))
(((real__refqtmk (real__content Real)))))
(declare-datatypes ((us_private__ref 0))
(((us_private__refqtmk (us_private__content us_private)))))
(define-fun int__ref___projection ((a int__ref)) Int (int__content a))

(define-fun us_fixed__ref___projection ((a us_fixed__ref)) Int (us_fixed__content
                                                               a))

(define-fun bool__ref___projection ((a bool__ref)) Bool (bool__content a))

(define-fun real__ref___projection ((a real__ref)) Real (real__content a))

(define-fun us_private__ref___projection ((a us_private__ref)) us_private 
  (us_private__content a))

(define-fun in_range ((x Int)) Bool (or (= x 0) (= x 1)))

(declare-fun attr__ATTRIBUTE_IMAGE (Bool) us_image)

(declare-fun attr__ATTRIBUTE_VALUE__pre_check (us_image) Bool)

(declare-fun attr__ATTRIBUTE_VALUE (us_image) Bool)

(declare-sort group1_id 0)

(declare-fun group1_idqtint (group1_id) Int)

;; group1_id'axiom
  (assert
  (forall ((i group1_id))
  (and (<= 1 (group1_idqtint i)) (<= (group1_idqtint i) 64))))

(define-fun in_range1 ((x Int)) Bool (and (<= 1 x) (<= x 64)))

(declare-fun attr__ATTRIBUTE_IMAGE1 (Int) us_image)

(declare-fun attr__ATTRIBUTE_VALUE__pre_check1 (us_image) Bool)

(declare-fun attr__ATTRIBUTE_VALUE1 (us_image) Int)

(declare-fun user_eq (group1_id group1_id) Bool)

(declare-const dummy group1_id)

(declare-datatypes ((group1_id__ref 0))
(((group1_id__refqtmk (group1_id__content group1_id)))))
(define-fun group1_id__ref_group1_id__content__projection ((a group1_id__ref)) group1_id 
  (group1_id__content a))

(define-fun to_rep ((x group1_id)) Int (group1_idqtint x))

(declare-fun of_rep (Int) group1_id)

;; inversion_axiom
  (assert
  (forall ((x group1_id))
  (! (= (of_rep (to_rep x)) x) :pattern ((to_rep x)) )))

;; range_axiom
  (assert
  (forall ((x group1_id)) (! (in_range1 (to_rep x)) :pattern ((to_rep x)) )))

;; coerce_axiom
  (assert
  (forall ((x Int))
  (! (=> (in_range1 x) (= (to_rep (of_rep x)) x)) :pattern ((to_rep
                                                            (of_rep x))) )))

(declare-datatypes ((map__ref 0))
(((map__refqtmk (map__content (Array Int group1_id))))))
(declare-fun slide ((Array Int group1_id) Int Int) (Array Int group1_id))

;; slide_eq
  (assert
  (forall ((a (Array Int group1_id)))
  (forall ((first Int))
  (! (= (slide a first first) a) :pattern ((slide a first first)) ))))

;; slide_def
  (assert
  (forall ((a (Array Int group1_id)))
  (forall ((old_first Int))
  (forall ((new_first Int))
  (forall ((i Int))
  (! (= (select (slide a old_first new_first) i) (select a (- i (- new_first old_first)))) :pattern ((select 
  (slide a old_first new_first) i)) ))))))

(define-fun bool_eq ((a (Array Int group1_id)) (a__first Int) (a__last Int)
  (b (Array Int group1_id)) (b__first Int)
  (b__last Int)) Bool (ite (and
                           (ite (<= a__first a__last)
                           (and (<= b__first b__last)
                           (= (- a__last a__first) (- b__last b__first)))
                           (< b__last b__first))
                           (forall ((temp___idx_154 Int))
                           (=>
                           (and (<= a__first temp___idx_154)
                           (<= temp___idx_154 a__last))
                           (= (to_rep (select a temp___idx_154)) (to_rep
                                                                 (select b (+ (- b__first a__first) temp___idx_154)))))))
                      true false))

;; bool_eq_rev
  (assert
  (forall ((a (Array Int group1_id)) (b (Array Int group1_id)))
  (forall ((a__first Int) (a__last Int) (b__first Int) (b__last Int))
  (=> (= (bool_eq b b__first b__last a a__first a__last) true)
  (and
  (ite (<= a__first a__last)
  (and (<= b__first b__last) (= (- a__last a__first) (- b__last b__first)))
  (< b__last b__first))
  (forall ((temp___idx_154 Int))
  (=> (and (<= a__first temp___idx_154) (<= temp___idx_154 a__last))
  (= (to_rep (select a temp___idx_154)) (to_rep
                                        (select b (+ (- b__first a__first) temp___idx_154)))))))))))

(declare-const r1 (Array Int group1_id))

(declare-const attr__ATTRIBUTE_ADDRESS Int)

(declare-datatypes ((map__ref1 0))
(((map__refqtmk1 (map__content1 (Array Int Bool))))))
(declare-fun slide1 ((Array Int Bool) Int Int) (Array Int Bool))

;; slide_eq
  (assert
  (forall ((a (Array Int Bool)))
  (forall ((first Int))
  (! (= (slide1 a first first) a) :pattern ((slide1 a first first)) ))))

;; slide_def
  (assert
  (forall ((a (Array Int Bool)))
  (forall ((old_first Int))
  (forall ((new_first Int))
  (forall ((i Int))
  (! (= (select (slide1 a old_first new_first) i) (select a (- i (- new_first old_first)))) :pattern ((select 
  (slide1 a old_first new_first) i)) ))))))

(define-fun bool_eq1 ((a (Array Int Bool)) (a__first Int) (a__last Int)
  (b (Array Int Bool)) (b__first Int)
  (b__last Int)) Bool (ite (and
                           (ite (<= a__first a__last)
                           (and (<= b__first b__last)
                           (= (- a__last a__first) (- b__last b__first)))
                           (< b__last b__first))
                           (forall ((temp___idx_167 Int))
                           (=>
                           (and (<= a__first temp___idx_167)
                           (<= temp___idx_167 a__last))
                           (= (ite (select a temp___idx_167) 1 0) (ite (select b (+ (- b__first a__first) temp___idx_167)) 1 0)))))
                      true false))

;; bool_eq_rev
  (assert
  (forall ((a (Array Int Bool)) (b (Array Int Bool)))
  (forall ((a__first Int) (a__last Int) (b__first Int) (b__last Int))
  (=> (= (bool_eq1 b b__first b__last a a__first a__last) true)
  (and
  (ite (<= a__first a__last)
  (and (<= b__first b__last) (= (- a__last a__first) (- b__last b__first)))
  (< b__last b__first))
  (forall ((temp___idx_167 Int))
  (=> (and (<= a__first temp___idx_167) (<= temp___idx_167 a__last))
  (= (ite (select a temp___idx_167) 1 0) (ite (select b (+ (- b__first a__first) temp___idx_167)) 1 0)))))))))

(declare-const attr__ATTRIBUTE_ADDRESS1 Int)

(declare-const attr__ATTRIBUTE_ADDRESS2 Int)

(declare-sort ranking 0)

(declare-fun rankingqtint (ranking) Int)

;; ranking'axiom
  (assert
  (forall ((i ranking))
  (and (<= 1 (rankingqtint i)) (<= (rankingqtint i) 64))))

(define-fun in_range2 ((x Int)) Bool (and (<= 1 x) (<= x 64)))

(declare-fun attr__ATTRIBUTE_IMAGE2 (Int) us_image)

(declare-fun attr__ATTRIBUTE_VALUE__pre_check2 (us_image) Bool)

(declare-fun attr__ATTRIBUTE_VALUE2 (us_image) Int)

(declare-fun user_eq1 (ranking ranking) Bool)

(declare-const dummy1 ranking)

(declare-datatypes ((ranking__ref 0))
(((ranking__refqtmk (ranking__content ranking)))))
(define-fun ranking__ref_ranking__content__projection ((a ranking__ref)) ranking 
  (ranking__content a))

(declare-fun stable_marriage__is_permutation_1__seen__aggregate_def (Bool) (Array Int Bool))

(declare-fun temp_____aggregate_def_503 (Bool) (Array Int Bool))

(declare-fun temp_____aggregate_def_513 (Bool) (Array Int Bool))

;; def_axiom
  (assert
  (forall ((temp___495 Bool))
  (forall ((temp___496 Int))
  (= (select (stable_marriage__is_permutation_1__seen__aggregate_def
             temp___495) temp___496) temp___495))))

;; def_axiom
  (assert
  (forall ((temp___505 Bool))
  (forall ((temp___506 Int))
  (= (select (temp_____aggregate_def_503 temp___505) temp___506) temp___505))))

;; def_axiom
  (assert
  (forall ((temp___515 Bool))
  (forall ((temp___516 Int))
  (= (select (temp_____aggregate_def_513 temp___515) temp___516) temp___515))))

(define-fun dynamic_invariant ((temp___expr_177 Int)
  (temp___is_init_173 Bool) (temp___skip_constant_174 Bool)
  (temp___do_toplevel_175 Bool)
  (temp___do_typ_inv_176 Bool)) Bool (=>
                                     (or (= temp___is_init_173 true)
                                     (<= 1 64)) (in_range1 temp___expr_177)))

(define-fun dynamic_invariant1 ((temp___expr_191 Int)
  (temp___is_init_187 Bool) (temp___skip_constant_188 Bool)
  (temp___do_toplevel_189 Bool)
  (temp___do_typ_inv_190 Bool)) Bool (=>
                                     (or (= temp___is_init_187 true)
                                     (<= 1 64)) (in_range2 temp___expr_191)))

(assert
;; defqtvc
 ;; File "stable_marriage.ads", line 20, characters 0-0
  (not
  (forall ((seen (Array Int Bool)) (rank Int) (usf Int))
  (=>
  (= seen (stable_marriage__is_permutation_1__seen__aggregate_def
          (distinct 0 0)))
  (=> (= rank 1)
  (=>
  (= (and (ite (<= 1 rank) true false) (ite (<= rank 64) true false)) true)
  (=> (= (and (ite (<= 1 usf) true false) (ite (<= usf 64) true false)) true)
  (=> (<= 1 (- rank 1)) (<= 1 1)))))))))
(check-sat)
(exit)
